              64
Properties=species:S:1:pos:R:3:velo:R:3
X   -1.7559458899  -0.8027928574  -0.1728170226   0.7683789432   0.8673768340  -0.5291562044
X   -2.2608911998  -0.2338403304  -0.5520573887  -0.9242041914  -0.6638636988  -0.5727730110
X   -2.3965477648  -0.1042801392   0.2769851031   0.8685858573   0.7218410011  -0.4959716708
X   -2.0534773683  -0.5522978288   0.9126602199   0.3476073161  -1.1766577011  -1.5528459604
X   -1.3871799403  -0.9739404614   1.2300956115  -1.0550933544  -0.7626350654   1.9413625418
X   -1.5579274301  -1.5113769605   0.5940867237   0.1947931821   0.1199862409   0.8599815958
X   -1.0124072578  -1.9273320199   1.0959722979   0.6599823018   1.2946839960   1.3279197822
X   -0.2617687317  -1.7575677890   0.7351095698   0.6449779650  -0.7088797112   0.3541525919
X   -0.2459226699  -2.0253211811  -0.0714615820  -0.4049023385  -0.7809148978   0.3574395898
X   -0.6145933842  -1.3357834031  -0.4048075826  -0.6098858429  -1.0302658452   0.0683541280
X   -0.7443740952  -0.8348279824   0.2695073530  -0.9644740040  -0.1864530662  -0.6267680850
X   -0.7057382753  -0.0010859008   0.4303843707  -0.8185267398  -0.2716020464  -0.2205354440
X   -0.9213743772   0.1878757848  -0.3697997029   0.5851003354  -0.4910514344  -0.6506117332
X   -0.3073254083   0.3230253510  -0.9417948589   1.2874891882   0.1138151735   0.2463339932
X    0.1839027382   0.7124066841  -0.3677068119   1.2316647230   1.4100069601  -0.5850547432
X    0.4679237552   0.0894524950   0.1360392957   0.2363201604   0.4722033514  -1.1835902102
X    0.1495228251  -0.4937445818  -0.3940569391   1.1812243801   0.7454115433  -2.0517205039
X    0.4722421141  -1.0765002025   0.1339091091  -0.5700163217   0.4638737252  -1.2920288333
X    0.8936433824  -1.7213589554   0.4931836012  -1.2294910388   0.7987527639   0.0825557062
X    1.6090221679  -1.3088539159   0.2917567287  -0.8565685928  -0.2771490567  -0.7963444807
X    2.2183563513  -0.7354744453   0.1419307108  -0.9171255027  -0.0205363241  -0.0605772289
X    2.6817656513  -0.1947540758  -0.3221525812  -1.0084074818  -0.3292190215  -0.5113841060
X    2.7498335057   0.4346974245   0.2449960546   0.6869356374  -0.0317419079  -1.0450110340
X    1.9113250244   0.3054725248   0.2970003966   0.8230567810   0.0536516027   1.3619745487
X    1.2497264472   0.3049715941   0.8306548463  -0.7396140953  -0.0215613891  -0.5754186573
X    1.7058035521   0.2574337022   1.5463599686  -0.2017545809   0.1160337483  -0.9090259218
X    1.5450917917  -0.5656370417   1.4077011018  -0.0519769394  -0.1725159933   0.6301891799
X    0.8331060295  -0.6302612913   0.9479185638  -0.5281145769  -1.1361418827   1.5029426770
X    0.1383502904  -0.1853250150   1.1524819379   1.0088874390   1.2720672113   1.4850576802
X   -0.3700156577   0.4776882895   1.3089345537  -0.3250036872   0.8101123102  -0.8915250206
X   -1.0042347841  -0.0585250816   1.4898801839   0.8660724545  -0.3739163306  -0.2255167731
X   -1.7455676100  -0.1618641678   1.8926787374   0.8562674003   1.9744563959   0.3589189977
X   -2.2728438841   0.2773146752   1.3910796199   0.1811904191  -0.1841588204  -0.8214380593
X   -1.7420034260   0.4942048885   0.7636507046  -0.2085487347  -1.4994815684  -1.6058614918
X   -2.1214830381   1.1628874396   0.4012160631   0.4224182070  -0.3898048239  -0.2191773030
X   -1.3280186909   1.2963910866   0.1271884973   0.0519229214   1.1988688801  -0.5179832518
X   -0.9497959511   1.3812267434   0.8836608836  -0.1243750305  -0.3875031019  -0.2519314994
X   -0.2689217095   1.7298307838   0.5130053964  -0.2884630257   0.8346464314   0.5960877178
X    0.5052172677   1.5019040009   0.2460630305  -0.5211690193   0.2445514748   0.4250832556
X    0.4672557183   0.9045487858   0.8495741466   1.5073625189   0.2147336652   0.5231665780
X    0.4534353453   1.5180530038   1.4377251244  -0.4143552223  -0.7604202896   1.4951996625
X    1.2446344940   1.3012805982   1.6602417080  -0.3596259066  -2.1498384757  -0.0529515169
X    1.6049378805   1.2091235908   0.8959194228  -0.0807909466  -0.0087847221  -0.1796623666
X    2.1178710169   1.6057688813   0.3463085516  -0.3897883729   0.7650816660   0.0904477203
X    1.5421947452   1.3484090899  -0.2236587889  -0.5103486426   2.6475858956  -0.6377996380
X    1.2245492538   0.8588940455  -0.8417011524   0.7023785466   1.1353476944  -0.0633308844
X    1.9523507917   0.4299407670  -0.7478714908  -0.4961756928  -0.8282773904   0.2564635344
X    1.5016203645  -0.1482207776  -1.1780706420   0.3067370565  -1.3009848694   0.0505218928
X    1.2646211786  -0.4630988156  -0.4249549749  -1.3790619004  -0.2813854008  -0.0536898539
X    1.2736292338  -1.2823703002  -0.6512580689   1.0154599044  -0.0110813852  -0.9369406523
X    0.4645492468  -1.3903326587  -0.8883945377   1.0489438902  -0.9056019843  -0.6439307660
X   -0.2301169506  -1.2475574819  -1.3569605662   0.1217257056   0.3339442466   1.1084019104
X   -1.0757061793  -1.2756763540  -1.4387418985   0.3766493051   1.1152314888  -1.7960453555
X   -1.0242263246  -0.5671701420  -0.9719777484   0.3322775652   0.1363155349  -0.3052447341
X   -1.6090594946  -0.1520357983  -1.4281944063  -1.3441192303  -0.5111023702   1.2546436073
X   -2.0155652378   0.5551045993  -1.1890176122  -0.1858218204   0.2600912468   0.9432103335
X   -1.2788930800   0.9784730830  -1.1650747880   0.4978924545  -0.9175055723   0.7295391539
X   -0.6580955263   1.3622217182  -0.7293599948  -0.4586674752   0.0678087798   1.2246268347
X   -0.1764061863   1.3747100961  -1.4295881149  -0.4499775059  -2.2232663307   1.1897439936
X   -0.0869818714   0.8612941819  -2.1010844960  -0.2323782327  -0.2588917285  -0.2832088664
X    0.7440345772   1.0113521485  -2.0041604529  -0.0872287074  -0.4794702323  -1.1862054526
X    0.7569624827   0.1733768700  -1.8622791581   1.2693371489   0.0891176829   2.0483651239
X    0.4436917736  -0.3707305405  -1.2892969700  -1.2794119259   1.0938647653   1.6089830582
X   -0.1876512027  -0.3393679666  -1.8575596168  -0.0661730051   0.1612021334   0.2095939254
