              64
Properties=species:S:1:pos:R:3:velo:R:3
X    1.4157055357   0.3583820742   0.8245192583   0.9516975118   1.2838820212   0.9860233910
X    1.7623578347  -0.2863144520   0.3959473754   0.8090391637   0.7445056754  -0.5062858212
X    1.2144896880  -0.9194078020   0.3244097035   0.3771978879   1.1781332874   1.0344761859
X    0.7936416764  -0.2650313224  -0.0090934455  -1.1686154025   0.2268693058   0.9081260436
X    1.1795621783   0.4348154639  -0.2909290807  -0.5024844596  -0.7066622955  -0.6842921538
X    1.9995150349   0.6587726396  -0.3694736721   0.4732229853   0.6018741364  -0.2394619278
X    1.7022871243   0.8182441790  -1.1571973376  -0.3293613365  -0.7421388424  -0.1421653802
X    1.0548755007   0.6861312107  -1.6868422539   0.1788553276  -0.4024042259  -1.0901438468
X    0.4438238479   0.9692104365  -2.1855582865  -0.5537986608   0.0660432842  -0.0224517072
X   -0.3295898571   0.6974993618  -2.0420707386   1.3200186690  -0.3395577498  -0.8962898119
X   -0.7734980776  -0.0145090866  -1.9565388048   0.3761287494   0.6332626375   0.6686708100
X   -0.3388059556  -0.7225320619  -1.8965438583   2.0421078150   0.9532419333   1.1847332452
X   -0.4807943576  -1.4019764882  -1.4334581249  -0.7257921566   1.1591970359   0.2941244035
X    0.3596234369  -1.3338262659  -1.3123729067   0.7244102592   1.8143279103  -1.0304590925
X    0.2786806459  -1.0900748678  -0.4849930213  -0.3992779843   0.4669529783   0.4563303958
X   -0.2482229027  -0.4376010581  -0.6948650559  -1.7868693012  -0.8656149463  -1.0093708635
X   -0.4577220317  -0.3743975685   0.1056789627   1.5111915688  -0.8593234887  -1.6654898356
X   -0.7041195830  -1.1692138292  -0.0263422188   0.6111754224   0.0714992379  -0.6743496310
X   -1.4703232698  -1.1375364297  -0.3825798320   0.9402774951  -0.6033318565   0.1261478613
X   -1.6924346778  -0.6331849155   0.2764100866  -0.4714634642  -1.3388726451   0.4813731110
X   -2.2524461842  -1.1315422416   0.6670316107  -0.2553000228  -0.7802462729   0.1432173180
X   -2.4655385115  -1.0454314132   1.4830192905   0.0708115229   0.8096975168   1.1647989733
X   -2.5781982721  -0.2272639573   1.2594137541  -0.8099055315  -0.1653730886  -0.9983183501
X   -2.0003471670   0.3763855441   1.1539940624  -0.0673943073   1.1016914857   0.6056827547
X   -2.5638894910   0.9864588309   1.1471243848   1.5109240688   0.3367835720  -0.0294596168
X   -2.2171425076   1.2339549072   1.8926670559   0.2486046588   0.9289938952   0.5488891735
X   -1.5222777998   1.4655186865   1.4489480876  -1.4815823172  -0.0586037124   0.8870323506
X   -0.9943649188   0.7663241386   1.3760888479  -0.0813244269  -1.2030326234  -0.3179534215
X   -0.3227377916   0.2878750305   1.1783275743  -2.3291537920   0.8327405831   0.9319817112
X    0.4273569197   0.6638294003   1.2731133992   0.2400254250  -2.4073022594  -0.7167332766
X   -0.0688865722   1.2578726482   0.9138087935  -0.9941142488  -0.3469594933   1.0777869895
X    0.2126698547   0.8617227488   0.2162780509   0.8509911640  -1.2986612013   0.0385608130
X    0.8952028932   1.3570596810   0.1455653894  -0.8132428208   0.3340521756  -0.4040058587
X    0.8070332766   1.4858438281  -0.6957624045   0.0214691080  -0.8484555290  -0.3583340678
X    0.0389038646   1.5795649349  -0.9999035793   1.0671544127  -0.2256095533   0.0306303318
X   -0.0998668587   2.0515453290  -1.7113700611  -0.5031587304  -0.1320435104  -0.4539453159
X   -0.8328710261   1.7554662627  -1.4002517518  -0.6558176278   1.2411384753   0.4307802663
X   -1.4482072365   1.4440723692  -0.8802082954   0.2109950805   0.0611379235  -0.2676180190
X   -0.8839730045   1.3596187774  -0.2448919275   1.5637545781  -0.0955393996  -0.0365413454
X   -0.7780647561   0.7445481137   0.3395335552  -0.8797520304  -0.2583630993  -0.3104764001
X   -1.5338494658   0.4219825007   0.1025961180   0.8863841455  -0.9833324529  -0.8575342792
X   -1.2384078205   0.3821832816  -0.6973295598  -1.0063296626   0.9483973824   0.5531700381
X   -0.5622368458   0.7550234060  -1.0442672783  -0.6858366686  -1.7670451505   1.3795051241
X    0.2584100956   0.5440718280  -0.9355339710   0.5718156830   0.3097375320   0.1209692285
X    0.3101970310  -0.0055795676  -1.5716495459  -0.9776044990   0.4211473969  -0.6340568650
X    0.7523431804  -0.2285186038  -2.2814498130   0.7422347666   0.2672554725   1.6425099632
X    1.3988735419  -0.4717964718  -1.7797939996  -0.0070881728  -1.0673077080  -0.8348503053
X    1.0987190683  -0.3134763614  -1.0069243298  -0.8996347508   0.6986229605   1.5918847518
X    1.9032531485  -0.3149003266  -0.7691908269  -0.2599677157   0.0409709777  -0.8346916247
X    1.9074787785  -1.0478471926  -0.3525922295   0.6816554139  -0.3380943098  -0.9797433813
X    2.7230630037  -0.8424779530  -0.5108622083   0.3093887708  -0.4242199551   2.4948248248
X    2.8035124348  -0.4807205032   0.2524595320   2.0439516884  -1.1074174765  -1.1273617427
X    2.4205374637  -1.1745613522   0.5798876097  -0.5568963326   0.5690881727  -0.6329657138
X    2.1371423396  -0.9161892995   1.3309035749   0.9693045904   0.3845966427  -0.0831903647
X    1.4614765032  -0.4564713801   1.5089287271   0.9893925348   0.3498740542  -1.1802168013
X    0.8698494577  -0.9705095158   1.7601172658   0.5994657147   1.0414158797  -1.1254828712
X    0.3959333887  -0.6838266210   1.1080167758   0.7348865336   0.3954217104  -0.6455823941
X    0.3136965687  -1.3149313846   0.5166275854  -0.6406331381  -1.4238539708   1.7456897735
X   -0.2868658251  -1.4280286019   1.0921942041  -3.6005722154   1.3688085150  -0.9054989078
X   -1.1333323466  -1.3674417193   1.0418126809   0.9947449155  -1.3737261807   0.8467518272
X   -1.0683108541  -0.5245242590   1.0210348723   0.0896629071   0.3764568923   1.0273554291
X   -1.3216103152  -0.6174118623   1.8345644198  -1.7835253333  -0.0026738087   0.4550590663
X   -0.5799041584  -0.2378026484   1.9268646480   1.4351082132   0.2285694204  -0.7183469460
X   -0.0913720992  -0.8171201546   2.3129543048  -1.9215516406  -0.0806212744  -1.4434182157
